Route #1: 1 18 56 53 35 52 44 1
Route #2: 1 2 42 21 54 55 19 24 1
Route #3: 1 12 32 46 58 39 36 57 23 20 1
Route #4: 1 28 43 6 4 22 37 1
Route #5: 1 14 8 51 48 62 17 63 49 31 1
Route #6: 1 59 33 41 9 66 34 16 61 5 40 15 30 1
Route #7: 1 45 65 47 64 60 38 26 1
Route #8: 1 7 3 27 11 29 1
Route #9: 1 13 25 50 10 1
cost 1435.3611135689982
